TOUR_SECTION
186
161
32
15
40
103
90
157
111
28
29
115
51
137
71
14
164
44
193
123
97
188
135
138
112
22
88
23
108
102
143
109
1
200
105
117
83
43
128
13
94
146
27
9
58
16
8
154
169
37
66
80
73
56
153
69
53
194
49
81
35
148
149
176
120
145
63
127
46
171
42
79
119
74
64
178
172
125
55
82
5
78
61
191
85
84
181
6
150
116
62
198
196
124
132
89
30
101
187
17
107
142
114
173
50
130
199
159
33
10
158
118
91
131
92
31
77
68
48
4
26
179
189
144
11
39
110
177
75
134
19
86
192
24
147
34
59
155
104
139
182
174
162
167
65
99
2
156
195
20
21
136
183
170
185
25
165
184
190
126
168
129
100
163
151
12
41
18
152
133
3
95
141
140
57
36
38
160
52
96
175
72
47
54
45
60
106
70
113
180
67
98
121
87
76
93
122
7
197
166
-1
EOF